199
68
135
523
170
1342
101
127
280
125
881
365
2169
100
505
60
45
495
3540
352
622
265
104
57
330
47
981
123
94
609
2055
801
106
2248
213
1439
243
2156
208
494
383
371
3281
65
830
106
1753
794
102
0
83
855
55
91
319
1513
100
255
280
140
855
27
62
795
1667
158
50
1068
2204
77
41
544
790
1468
1001
1573
864
288
2393
2418
1061
4751
72
188
191
87
185
79
259
1229
5888
191
570
510
34
31
1574
0
369
939
